p cnf 1185
-19 -369
-20 -372
-21 -375
-22 -378
-23 -381
-24 -384
-25 -387
-26 -390
-27 -393
-28 -396
-29 -399
-30 -402
-31 -405
-32 -408
-33 -411
-34 -414
-35 -417
-36 -420
-37 421
-38 422
-39 423
-40 424
-41 425
-42 426
-43 427
-44 428
-45 -20
-45 -21
20 21 45
-46 -22
-46 -23
22 23 46
-47 -24
-47 -25
24 25 47
-48 -26
-48 -27
26 27 48
-49 -28
-49 -29
28 29 49
-50 -30
-50 -31
30 31 50
-51 -32
-51 -33
32 33 51
-52 -34
-52 -35
34 35 52
-53 -36
-53 -37
36 37 53
-54 -38
-54 -39
38 39 54
-55 -40
-55 -41
40 41 55
-56 -42
-56 -43
42 43 56
-57 45
-57 46
-45 -46 57
-58 47
-58 48
-47 -48 58
-59 49
-59 50
-49 -50 59
-60 51
-60 52
-51 -52 60
-61 53
-61 54
-53 -54 61
-62 55
-62 56
-55 -56 62
-63 57
-63 58
-57 -58 63
-64 59
-64 60
-59 -60 64
-65 61
-65 62
-61 -62 65
-66 63
-66 64
-63 -64 66
-67 -44
-67 65
44 -65 67
-68 66
-68 67
-66 -67 68
-69 -19
-69 20
19 -20 69
-70 19
-70 -20
-19 20 70
-71 -69
-71 -70
69 70 71
-72 19
-72 20
-19 -20 72
-73 -19
-73 -71
19 71 73
-74 19
-74 71
-19 -71 74
-75 -73
-75 -74
73 74 75
-76 19
-76 -71
-19 71 76
-77 -72
-77 -76
72 76 77
-78 -20
-78 21
20 -21 78
-79 20
-79 -21
-20 21 79
-80 -78
-80 -79
78 79 80
-81 20
-81 21
-20 -21 81
-82 77
-82 -80
-77 80 82
-83 -77
-83 80
77 -80 83
-84 -82
-84 -83
82 83 84
-85 -77
-85 -80
77 80 85
-86 -81
-86 -85
81 85 86
-87 -21
-87 22
21 -22 87
-88 21
-88 -22
-21 22 88
-89 -87
-89 -88
87 88 89
-90 21
-90 22
-21 -22 90
-91 86
-91 -89
-86 89 91
-92 -86
-92 89
86 -89 92
-93 -91
-93 -92
91 92 93
-94 -86
-94 -89
86 89 94
-95 -90
-95 -94
90 94 95
-96 -22
-96 23
22 -23 96
-97 22
-97 -23
-22 23 97
-98 -96
-98 -97
96 97 98
-99 22
-99 23
-22 -23 99
-100 95
-100 -98
-95 98 100
-101 -95
-101 98
95 -98 101
-102 -100
-102 -101
100 101 102
-103 -95
-103 -98
95 98 103
-104 -99
-104 -103
99 103 104
-105 -23
-105 24
23 -24 105
-106 23
-106 -24
-23 24 106
-107 -105
-107 -106
105 106 107
-108 23
-108 24
-23 -24 108
-109 104
-109 -107
-104 107 109
-110 -104
-110 107
104 -107 110
-111 -109
-111 -110
109 110 111
-112 -104
-112 -107
104 107 112
-113 -108
-113 -112
108 112 113
-114 -24
-114 25
24 -25 114
-115 24
-115 -25
-24 25 115
-116 -114
-116 -115
114 115 116
-117 24
-117 25
-24 -25 117
-118 113
-118 -116
-113 116 118
-119 -113
-119 116
113 -116 119
-120 -118
-120 -119
118 119 120
-121 -113
-121 -116
113 116 121
-122 -117
-122 -121
117 121 122
-123 -25
-123 26
25 -26 123
-124 25
-124 -26
-25 26 124
-125 -123
-125 -124
123 124 125
-126 25
-126 26
-25 -26 126
-127 122
-127 -125
-122 125 127
-128 -122
-128 125
122 -125 128
-129 -127
-129 -128
127 128 129
-130 -122
-130 -125
122 125 130
-131 -126
-131 -130
126 130 131
-132 -26
-132 27
26 -27 132
-133 26
-133 -27
-26 27 133
-134 -132
-134 -133
132 133 134
-135 26
-135 27
-26 -27 135
-136 131
-136 -134
-131 134 136
-137 -131
-137 134
131 -134 137
-138 -136
-138 -137
136 137 138
-139 -131
-139 -134
131 134 139
-140 -135
-140 -139
135 139 140
-141 -27
-141 28
27 -28 141
-142 27
-142 -28
-27 28 142
-143 -141
-143 -142
141 142 143
-144 27
-144 28
-27 -28 144
-145 140
-145 -143
-140 143 145
-146 -140
-146 143
140 -143 146
-147 -145
-147 -146
145 146 147
-148 -140
-148 -143
140 143 148
-149 -144
-149 -148
144 148 149
-150 -28
-150 29
28 -29 150
-151 28
-151 -29
-28 29 151
-152 -150
-152 -151
150 151 152
-153 28
-153 29
-28 -29 153
-154 149
-154 -152
-149 152 154
-155 -149
-155 152
149 -152 155
-156 -154
-156 -155
154 155 156
-157 -149
-157 -152
149 152 157
-158 -153
-158 -157
153 157 158
-159 -29
-159 30
29 -30 159
-160 29
-160 -30
-29 30 160
-161 -159
-161 -160
159 160 161
-162 29
-162 30
-29 -30 162
-163 158
-163 -161
-158 161 163
-164 -158
-164 161
158 -161 164
-165 -163
-165 -164
163 164 165
-166 -158
-166 -161
158 161 166
-167 -162
-167 -166
162 166 167
-168 -30
-168 31
30 -31 168
-169 30
-169 -31
-30 31 169
-170 -168
-170 -169
168 169 170
-171 30
-171 31
-30 -31 171
-172 167
-172 -170
-167 170 172
-173 -167
-173 170
167 -170 173
-174 -172
-174 -173
172 173 174
-175 -167
-175 -170
167 170 175
-176 -171
-176 -175
171 175 176
-177 -31
-177 32
31 -32 177
-178 31
-178 -32
-31 32 178
-179 -177
-179 -178
177 178 179
-180 31
-180 32
-31 -32 180
-181 176
-181 -179
-176 179 181
-182 -176
-182 179
176 -179 182
-183 -181
-183 -182
181 182 183
-184 -176
-184 -179
176 179 184
-185 -180
-185 -184
180 184 185
-186 -32
-186 33
32 -33 186
-187 32
-187 -33
-32 33 187
-188 -186
-188 -187
186 187 188
-189 32
-189 33
-32 -33 189
-190 185
-190 -188
-185 188 190
-191 -185
-191 188
185 -188 191
-192 -190
-192 -191
190 191 192
-193 -185
-193 -188
185 188 193
-194 -189
-194 -193
189 193 194
-195 -33
-195 34
33 -34 195
-196 33
-196 -34
-33 34 196
-197 -195
-197 -196
195 196 197
-198 33
-198 34
-33 -34 198
-199 194
-199 -197
-194 197 199
-200 -194
-200 197
194 -197 200
-201 -199
-201 -200
199 200 201
-202 -194
-202 -197
194 197 202
-203 -198
-203 -202
198 202 203
-204 -34
-204 35
34 -35 204
-205 34
-205 -35
-34 35 205
-206 -204
-206 -205
204 205 206
-207 34
-207 35
-34 -35 207
-208 203
-208 -206
-203 206 208
-209 -203
-209 206
203 -206 209
-210 -208
-210 -209
208 209 210
-211 -203
-211 -206
203 206 211
-212 -207
-212 -211
207 211 212
-213 -35
-213 36
35 -36 213
-214 35
-214 -36
-35 36 214
-215 -213
-215 -214
213 214 215
-216 35
-216 36
-35 -36 216
-217 212
-217 -215
-212 215 217
-218 -212
-218 215
212 -215 218
-219 -217
-219 -218
217 218 219
-220 -212
-220 -215
212 215 220
-221 -216
-221 -220
216 220 221
-222 -36
-222 37
36 -37 222
-223 36
-223 -37
-36 37 223
-224 -222
-224 -223
222 223 224
-225 36
-225 37
-36 -37 225
-226 221
-226 -224
-221 224 226
-227 -221
-227 224
221 -224 227
-228 -226
-228 -227
226 227 228
-229 -221
-229 -224
221 224 229
-230 -225
-230 -229
225 229 230
-231 -37
-231 38
37 -38 231
-232 37
-232 -38
-37 38 232
-233 -231
-233 -232
231 232 233
-234 37
-234 38
-37 -38 234
-235 230
-235 -233
-230 233 235
-236 -230
-236 233
230 -233 236
-237 -235
-237 -236
235 236 237
-238 -230
-238 -233
230 233 238
-239 -234
-239 -238
234 238 239
-240 -38
-240 39
38 -39 240
-241 38
-241 -39
-38 39 241
-242 -240
-242 -241
240 241 242
-243 38
-243 39
-38 -39 243
-244 239
-244 -242
-239 242 244
-245 -239
-245 242
239 -242 245
-246 -244
-246 -245
244 245 246
-247 -239
-247 -242
239 242 247
-248 -243
-248 -247
243 247 248
-249 -39
-249 40
39 -40 249
-250 39
-250 -40
-39 40 250
-251 -249
-251 -250
249 250 251
-252 39
-252 40
-39 -40 252
-253 248
-253 -251
-248 251 253
-254 -248
-254 251
248 -251 254
-255 -253
-255 -254
253 254 255
-256 -248
-256 -251
248 251 256
-257 -252
-257 -256
252 256 257
-258 -40
-258 41
40 -41 258
-259 40
-259 -41
-40 41 259
-260 -258
-260 -259
258 259 260
-261 40
-261 41
-40 -41 261
-262 257
-262 -260
-257 260 262
-263 -257
-263 260
257 -260 263
-264 -262
-264 -263
262 263 264
-265 -257
-265 -260
257 260 265
-266 -261
-266 -265
261 265 266
-267 -41
-267 42
41 -42 267
-268 41
-268 -42
-41 42 268
-269 -267
-269 -268
267 268 269
-270 41
-270 42
-41 -42 270
-271 266
-271 -269
-266 269 271
-272 -266
-272 269
266 -269 272
-273 -271
-273 -272
271 272 273
-274 -266
-274 -269
266 269 274
-275 -270
-275 -274
270 274 275
-276 -42
-276 43
42 -43 276
-277 42
-277 -43
-42 43 277
-278 -276
-278 -277
276 277 278
-279 42
-279 43
-42 -43 279
-280 275
-280 -278
-275 278 280
-281 -275
-281 278
275 -278 281
-282 -280
-282 -281
280 281 282
-283 -275
-283 -278
275 278 283
-284 -279
-284 -283
279 283 284
-285 -43
-285 44
43 -44 285
-286 43
-286 -44
-43 44 286
-287 -285
-287 -286
285 286 287
-288 43
-288 44
-43 -44 288
-289 284
-289 -287
-284 287 289
-290 -284
-290 287
284 -287 290
-291 -289
-291 -290
289 290 291
-292 -284
-292 -287
284 287 292
-293 -288
-293 -292
288 292 293
-294 19
-294 -75
-19 75 294
-295 -19
-295 21
19 -21 295
-296 -294
-296 -295
294 295 296
-297 19
-297 -84
-19 84 297
-298 -19
-298 22
19 -22 298
-299 -297
-299 -298
297 298 299
-300 19
-300 -93
-19 93 300
-301 -19
-301 23
19 -23 301
-302 -300
-302 -301
300 301 302
-303 19
-303 -102
-19 102 303
-304 -19
-304 24
19 -24 304
-305 -303
-305 -304
303 304 305
-306 19
-306 -111
-19 111 306
-307 -19
-307 25
19 -25 307
-308 -306
-308 -307
306 307 308
-309 19
-309 -120
-19 120 309
-310 -19
-310 26
19 -26 310
-311 -309
-311 -310
309 310 311
-312 19
-312 -129
-19 129 312
-313 -19
-313 27
19 -27 313
-314 -312
-314 -313
312 313 314
-315 19
-315 -138
-19 138 315
-316 -19
-316 28
19 -28 316
-317 -315
-317 -316
315 316 317
-318 19
-318 -147
-19 147 318
-319 -19
-319 29
19 -29 319
-320 -318
-320 -319
318 319 320
-321 19
-321 -156
-19 156 321
-322 -19
-322 30
19 -30 322
-323 -321
-323 -322
321 322 323
-324 19
-324 -165
-19 165 324
-325 -19
-325 31
19 -31 325
-326 -324
-326 -325
324 325 326
-327 19
-327 -174
-19 174 327
-328 -19
-328 32
19 -32 328
-329 -327
-329 -328
327 328 329
-330 19
-330 -183
-19 183 330
-331 -19
-331 33
19 -33 331
-332 -330
-332 -331
330 331 332
-333 19
-333 -192
-19 192 333
-334 -19
-334 34
19 -34 334
-335 -333
-335 -334
333 334 335
-336 19
-336 -201
-19 201 336
-337 -19
-337 35
19 -35 337
-338 -336
-338 -337
336 337 338
-339 19
-339 -210
-19 210 339
-340 -19
-340 36
19 -36 340
-341 -339
-341 -340
339 340 341
-342 19
-342 -219
-19 219 342
-343 -19
-343 37
19 -37 343
-344 -342
-344 -343
342 343 344
-345 19
-345 -228
-19 228 345
-346 -19
-346 38
19 -38 346
-347 -345
-347 -346
345 346 347
-348 19
-348 -237
-19 237 348
-349 -19
-349 39
19 -39 349
-350 -348
-350 -349
348 349 350
-351 19
-351 -246
-19 246 351
-352 -19
-352 40
19 -40 352
-353 -351
-353 -352
351 352 353
-354 19
-354 -255
-19 255 354
-355 -19
-355 41
19 -41 355
-356 -354
-356 -355
354 355 356
-357 19
-357 -264
-19 264 357
-358 -19
-358 42
19 -42 358
-359 -357
-359 -358
357 358 359
-360 19
-360 -273
-19 273 360
-361 -19
-361 43
19 -43 361
-362 -360
-362 -361
360 361 362
-363 19
-363 -282
-19 282 363
-364 -19
-364 44
19 -44 364
-365 -363
-365 -364
363 364 365
-366 19
-366 -291
-19 291 366
-367 1
-367 68
-1 -68 367
-368 -68
-368 69
68 -69 368
-369 -367
-369 -368
367 368 369
-370 2
-370 68
-2 -68 370
-371 -68
-371 -296
68 296 371
-372 -370
-372 -371
370 371 372
-373 3
-373 68
-3 -68 373
-374 -68
-374 -299
68 299 374
-375 -373
-375 -374
373 374 375
-376 4
-376 68
-4 -68 376
-377 -68
-377 -302
68 302 377
-378 -376
-378 -377
376 377 378
-379 5
-379 68
-5 -68 379
-380 -68
-380 -305
68 305 380
-381 -379
-381 -380
379 380 381
-382 6
-382 68
-6 -68 382
-383 -68
-383 -308
68 308 383
-384 -382
-384 -383
382 383 384
-385 7
-385 68
-7 -68 385
-386 -68
-386 -311
68 311 386
-387 -385
-387 -386
385 386 387
-388 8
-388 68
-8 -68 388
-389 -68
-389 -314
68 314 389
-390 -388
-390 -389
388 389 390
-391 9
-391 68
-9 -68 391
-392 -68
-392 -317
68 317 392
-393 -391
-393 -392
391 392 393
-394 10
-394 68
-10 -68 394
-395 -68
-395 -320
68 320 395
-396 -394
-396 -395
394 395 396
-397 11
-397 68
-11 -68 397
-398 -68
-398 -323
68 323 398
-399 -397
-399 -398
397 398 399
-400 12
-400 68
-12 -68 400
-401 -68
-401 -326
68 326 401
-402 -400
-402 -401
400 401 402
-403 13
-403 68
-13 -68 403
-404 -68
-404 -329
68 329 404
-405 -403
-405 -404
403 404 405
-406 14
-406 68
-14 -68 406
-407 -68
-407 -332
68 332 407
-408 -406
-408 -407
406 407 408
-409 15
-409 68
-15 -68 409
-410 -68
-410 -335
68 335 410
-411 -409
-411 -410
409 410 411
-412 16
-412 68
-16 -68 412
-413 -68
-413 -338
68 338 413
-414 -412
-414 -413
412 413 414
-415 17
-415 68
-17 -68 415
-416 -68
-416 -341
68 341 416
-417 -415
-417 -416
415 416 417
-418 18
-418 68
-18 -68 418
-419 -68
-419 -344
68 344 419
-420 -418
-420 -419
418 419 420
-421 -68
-421 -347
68 347 421
-422 -68
-422 -350
68 350 422
-423 -68
-423 -353
68 353 423
-424 -68
-424 -356
68 356 424
-425 -68
-425 -359
68 359 425
-426 -68
-426 -362
68 362 426
-427 -68
-427 -365
68 365 427
-428 -68
-428 366
68 -366 428
-429 -44
-429 293
44 -293 429
-430 19
-430 -429
-19 429 430
430
